
Gurobi 9.0.1 (linux64) logging started Thu Apr 30 18:38:52 2020

Gurobi Optimizer version 9.0.1 build v9.0.1rc0 (linux64)
Optimize a model with 12677 rows, 12060 columns and 201690 nonzeros
Model fingerprint: 0xc49157ba
Variable types: 0 continuous, 12060 integer (12032 binary)
Coefficient statistics:
  Matrix range     [1e+00, 1e+01]
  Objective range  [1e+00, 1e+02]
  Bounds range     [1e+00, 1e+00]
  RHS range        [1e+00, 1e+00]

User MIP start produced solution with objective 909 (0.26s)
Loaded user MIP start with objective 909

Presolve removed 3752 rows and 3270 columns
Presolve time: 3.08s
Presolved: 8925 rows, 8790 columns, 167925 nonzeros
Variable types: 0 continuous, 8790 integer (8764 binary)

Root simplex log...

Iteration    Objective       Primal Inf.    Dual Inf.      Time
    2988    5.4152234e+02   3.341684e+03   0.000000e+00      5s
    5750    5.4988766e+02   1.717524e+03   0.000000e+00     10s
    7679    5.5079120e+02   1.367091e+02   0.000000e+00     15s
    9422    5.5124317e+02   8.009916e+01   0.000000e+00     20s
   10009    5.5124813e+02   0.000000e+00   0.000000e+00     22s

Root relaxation: objective 5.512481e+02, 10009 iterations, 18.25 seconds

    Nodes    |    Current Node    |     Objective Bounds      |     Work
 Expl Unexpl |  Obj  Depth IntInf | Incumbent    BestBd   Gap | It/Node Time

     0     0  551.24813    0 1935  909.00000  551.24813  39.4%     -   24s
     0     0  574.80500    0 1956  909.00000  574.80500  36.8%     -   78s
     0     0  574.82329    0 1946  909.00000  574.82329  36.8%     -   82s
     0     0  575.88491    0 2031  909.00000  575.88491  36.6%     -   92s
     0     0  575.88574    0 1977  909.00000  575.88574  36.6%     -   92s
     0     0  584.67138    0 2072  909.00000  584.67138  35.7%     -  138s
     0     0  584.85172    0 2029  909.00000  584.85172  35.7%     -  152s
     0     0  586.27553    0 1978  909.00000  586.27553  35.5%     -  190s
     0     0  586.28233    0 1961  909.00000  586.28233  35.5%     -  193s
     0     0  592.28592    0 2028  909.00000  592.28592  34.8%     -  288s
     0     0  592.41882    0 1974  909.00000  592.41882  34.8%     -  312s
     0     0  592.42794    0 1998  909.00000  592.42794  34.8%     -  317s
     0     0  596.55543    0 2116  909.00000  596.55543  34.4%     -  452s
     0     0  597.00091    0 2106  909.00000  597.00091  34.3%     -  488s
     0     0  597.06352    0 2112  909.00000  597.06352  34.3%     -  505s
     0     0  597.14801    0 2061  909.00000  597.14801  34.3%     -  522s
     0     0  597.15464    0 2080  909.00000  597.15464  34.3%     -  530s
     0     0  598.74900    0 2031  909.00000  598.74900  34.1%     -  596s
     0     0  599.25680    0 2090  909.00000  599.25680  34.1%     -  637s
     0     0  599.67161    0 2036  909.00000  599.67161  34.0%     -  675s
     0     0  599.79839    0 2070  909.00000  599.79839  34.0%     -  691s
     0     0  599.80899    0 2055  909.00000  599.80899  34.0%     -  695s
     0     0  601.51731    0 2074  909.00000  601.51731  33.8%     -  779s
     0     0  601.61862    0 2122  909.00000  601.61862  33.8%     -  803s
     0     0  601.63739    0 2133  909.00000  601.63739  33.8%     -  814s
     0     0  602.34258    0 2156  909.00000  602.34258  33.7%     -  890s
     0     0  602.49634    0 2187  909.00000  602.49634  33.7%     -  928s
     0     0  602.51109    0 2184  909.00000  602.51109  33.7%     -  940s
     0     0  603.43507    0 2143  909.00000  603.43507  33.6%     - 1020s
     0     0  603.50896    0 2192  909.00000  603.50896  33.6%     - 1051s
     0     0  603.52526    0 2199  909.00000  603.52526  33.6%     - 1059s
     0     0  603.99039    0 2161  909.00000  603.99039  33.6%     - 1102s
     0     0  604.07252    0 2200  909.00000  604.07252  33.5%     - 1130s
     0     0  604.10542    0 2191  909.00000  604.10542  33.5%     - 1144s
     0     0  604.10838    0 2160  909.00000  604.10838  33.5%     - 1149s
     0     0  604.67203    0 2210  909.00000  604.67203  33.5%     - 1208s
     0     0  604.73739    0 2208  909.00000  604.73739  33.5%     - 1234s
     0     0  604.74558    0 2185  909.00000  604.74558  33.5%     - 1239s
     0     0  605.23664    0 2222  909.00000  605.23664  33.4%     - 1295s
     0     0  605.53718    0 2185  909.00000  605.53718  33.4%     - 1343s
     0     0  605.65125    0 2184  909.00000  605.65125  33.4%     - 1370s
     0     0  605.67847    0 2179  909.00000  605.67847  33.4%     - 1383s
     0     0  606.23408    0 2174  909.00000  606.23408  33.3%     - 1446s
     0     0  606.32022    0 2195  909.00000  606.32022  33.3%     - 1473s
     0     0  606.32864    0 2201  909.00000  606.32864  33.3%     - 1480s
     0     0  606.55615    0 2192  909.00000  606.55615  33.3%     - 1518s
     0     0  606.58861    0 2203  909.00000  606.58861  33.3%     - 1545s
     0     0  606.59869    0 2225  909.00000  606.59869  33.3%     - 1554s
     0     0  606.77849    0 2195  909.00000  606.77849  33.2%     - 1591s
     0     0  606.77849    0 2181  909.00000  606.77849  33.2%     - 1600s
     0     2  606.78023    0 2154  909.00000  606.78023  33.2%     - 1729s
     1     3  617.79922    1 1838  909.00000  606.78023  33.2% 49532 1921s
     2     4  606.91907    1 2184  909.00000  606.91907  33.2% 27510 1943s
     3     5  609.63754    2 2040  909.00000  606.91920  33.2% 28505 2070s
     4     6  607.92843    2 2152  909.00000  607.92843  33.1% 28078 2186s
     5     7  637.57435    3 1959  909.00000  607.92843  33.1% 30013 2338s
     6     8  608.04227    3 2145  909.00000  608.04227  33.1% 25815 2360s
     7     9  620.68353    4 1882  909.00000  608.04227  33.1% 34963 2727s
     8    10  608.57904    4 2141  909.00000  608.57904  33.0% 31794 2765s
     9    11  623.12451    5 1872  909.00000  608.57904  33.0% 34259 2992s
    10    12  608.78626    5 2149  909.00000  608.78626  33.0% 32180 3035s
    11    13  620.96157    6 1898  909.00000  608.78626  33.0% 34492 3242s
    12    14  610.21277    6 2109  909.00000  609.63754  32.9% 33462 3319s
    13    15  641.53270    7 1910  909.00000  609.63754  32.9% 34913 3477s
    14    16  610.52465    7 2078  909.00000  609.63754  32.9% 32855 3495s

Cutting planes:
  Gomory: 3
  MIR: 84
  StrongCG: 1
  Zero half: 61
  RLT: 1261

Explored 15 nodes (857595 simplex iterations) in 3600.01 seconds
Thread count was 1 (of 40 available processors)

Solution count 1: 909 

Time limit reached
Best objective 9.090000000000e+02, best bound 6.100000000000e+02, gap 32.8933%

User-callback calls 24369, time in user-callback 0.05 sec
